c FILE: n200d20/random-n200-d20-3.col

p edge 200 3980
e 1 17
e 1 18
e 1 19
e 1 24
e 1 26
e 1 30
e 1 41
e 1 48
e 1 53
e 1 59
e 1 60
e 1 63
e 1 76
e 1 85
e 1 87
e 1 93
e 1 106
e 1 111
e 1 118
e 1 120
e 1 133
e 1 138
e 1 140
e 1 142
e 1 148
e 1 151
e 1 152
e 1 155
e 1 163
e 1 165
e 1 166
e 1 170
e 1 171
e 1 172
e 1 177
e 1 179
e 1 180
e 1 190
e 1 198
e 2 3
e 2 7
e 2 13
e 2 15
e 2 17
e 2 18
e 2 27
e 2 29
e 2 30
e 2 35
e 2 37
e 2 40
e 2 41
e 2 42
e 2 44
e 2 47
e 2 50
e 2 58
e 2 59
e 2 60
e 2 61
e 2 68
e 2 70
e 2 71
e 2 77
e 2 93
e 2 99
e 2 103
e 2 105
e 2 106
e 2 107
e 2 108
e 2 112
e 2 114
e 2 115
e 2 125
e 2 133
e 2 136
e 2 140
e 2 145
e 2 157
e 2 166
e 2 168
e 2 170
e 2 175
e 2 177
e 2 179
e 2 180
e 2 185
e 2 187
e 2 196
e 3 4
e 3 8
e 3 11
e 3 13
e 3 18
e 3 27
e 3 30
e 3 41
e 3 45
e 3 46
e 3 52
e 3 56
e 3 59
e 3 61
e 3 62
e 3 64
e 3 72
e 3 88
e 3 96
e 3 100
e 3 109
e 3 117
e 3 122
e 3 123
e 3 135
e 3 137
e 3 138
e 3 144
e 3 145
e 3 146
e 3 149
e 3 156
e 3 157
e 3 173
e 3 174
e 3 177
e 3 183
e 3 189
e 3 191
e 3 192
e 3 197
e 3 199
e 4 14
e 4 20
e 4 22
e 4 24
e 4 36
e 4 39
e 4 42
e 4 59
e 4 63
e 4 65
e 4 85
e 4 89
e 4 91
e 4 98
e 4 99
e 4 101
e 4 104
e 4 113
e 4 114
e 4 118
e 4 119
e 4 122
e 4 123
e 4 126
e 4 137
e 4 140
e 4 144
e 4 148
e 4 161
e 4 163
e 4 174
e 4 181
e 4 190
e 4 193
e 4 196
e 5 9
e 5 10
e 5 22
e 5 28
e 5 29
e 5 41
e 5 54
e 5 55
e 5 57
e 5 59
e 5 60
e 5 65
e 5 69
e 5 76
e 5 78
e 5 85
e 5 86
e 5 88
e 5 89
e 5 90
e 5 96
e 5 112
e 5 118
e 5 120
e 5 125
e 5 130
e 5 134
e 5 140
e 5 149
e 5 152
e 5 155
e 5 159
e 5 170
e 5 177
e 5 180
e 5 182
e 5 185
e 5 189
e 5 200
e 6 11
e 6 16
e 6 20
e 6 26
e 6 30
e 6 33
e 6 43
e 6 46
e 6 50
e 6 59
e 6 65
e 6 67
e 6 70
e 6 75
e 6 82
e 6 87
e 6 97
e 6 102
e 6 112
e 6 118
e 6 136
e 6 137
e 6 138
e 6 141
e 6 152
e 6 154
e 6 167
e 6 168
e 6 171
e 6 180
e 6 184
e 6 187
e 6 188
e 6 191
e 6 193
e 7 8
e 7 11
e 7 18
e 7 25
e 7 27
e 7 29
e 7 32
e 7 35
e 7 39
e 7 43
e 7 46
e 7 49
e 7 52
e 7 56
e 7 66
e 7 69
e 7 70
e 7 76
e 7 79
e 7 85
e 7 93
e 7 99
e 7 100
e 7 102
e 7 111
e 7 115
e 7 120
e 7 121
e 7 123
e 7 133
e 7 134
e 7 135
e 7 142
e 7 147
e 7 155
e 7 160
e 7 186
e 7 195
e 7 199
e 7 200
e 8 16
e 8 24
e 8 33
e 8 38
e 8 46
e 8 50
e 8 52
e 8 59
e 8 63
e 8 67
e 8 91
e 8 100
e 8 101
e 8 106
e 8 107
e 8 111
e 8 112
e 8 126
e 8 127
e 8 133
e 8 134
e 8 144
e 8 145
e 8 153
e 8 160
e 8 163
e 8 168
e 8 177
e 8 178
e 8 180
e 8 190
e 9 11
e 9 14
e 9 30
e 9 45
e 9 46
e 9 47
e 9 50
e 9 57
e 9 58
e 9 59
e 9 62
e 9 63
e 9 64
e 9 65
e 9 72
e 9 94
e 9 109
e 9 113
e 9 114
e 9 115
e 9 121
e 9 123
e 9 130
e 9 137
e 9 144
e 9 151
e 9 158
e 9 172
e 9 176
e 9 177
e 9 180
e 9 186
e 9 188
e 10 11
e 10 13
e 10 15
e 10 19
e 10 21
e 10 28
e 10 40
e 10 42
e 10 74
e 10 79
e 10 84
e 10 88
e 10 94
e 10 105
e 10 110
e 10 115
e 10 117
e 10 118
e 10 119
e 10 129
e 10 134
e 10 137
e 10 138
e 10 149
e 10 153
e 10 162
e 10 174
e 10 176
e 10 180
e 10 183
e 10 186
e 10 187
e 10 199
e 11 16
e 11 20
e 11 22
e 11 29
e 11 30
e 11 35
e 11 51
e 11 52
e 11 53
e 11 57
e 11 60
e 11 62
e 11 63
e 11 67
e 11 78
e 11 91
e 11 95
e 11 100
e 11 103
e 11 104
e 11 137
e 11 139
e 11 140
e 11 155
e 11 176
e 11 177
e 11 180
e 11 181
e 11 186
e 11 188
e 11 191
e 11 193
e 11 194
e 11 198
e 11 199
e 12 13
e 12 19
e 12 21
e 12 24
e 12 25
e 12 28
e 12 31
e 12 32
e 12 39
e 12 40
e 12 41
e 12 42
e 12 45
e 12 48
e 12 50
e 12 53
e 12 59
e 12 60
e 12 73
e 12 80
e 12 86
e 12 87
e 12 101
e 12 108
e 12 113
e 12 115
e 12 116
e 12 128
e 12 136
e 12 154
e 12 156
e 12 157
e 12 161
e 12 168
e 12 169
e 12 173
e 12 175
e 12 177
e 12 179
e 12 182
e 12 189
e 12 190
e 12 194
e 12 200
e 13 19
e 13 22
e 13 32
e 13 34
e 13 37
e 13 40
e 13 45
e 13 65
e 13 67
e 13 71
e 13 74
e 13 81
e 13 82
e 13 86
e 13 90
e 13 92
e 13 94
e 13 95
e 13 97
e 13 98
e 13 100
e 13 101
e 13 106
e 13 112
e 13 116
e 13 122
e 13 132
e 13 136
e 13 137
e 13 162
e 13 175
e 13 184
e 13 187
e 13 200
e 14 15
e 14 24
e 14 28
e 14 31
e 14 33
e 14 35
e 14 40
e 14 44
e 14 52
e 14 53
e 14 55
e 14 62
e 14 64
e 14 71
e 14 72
e 14 73
e 14 79
e 14 82
e 14 85
e 14 101
e 14 108
e 14 112
e 14 120
e 14 122
e 14 131
e 14 132
e 14 134
e 14 138
e 14 142
e 14 146
e 14 163
e 14 180
e 14 181
e 14 184
e 14 188
e 14 192
e 15 18
e 15 36
e 15 46
e 15 47
e 15 56
e 15 62
e 15 69
e 15 89
e 15 93
e 15 103
e 15 123
e 15 125
e 15 133
e 15 134
e 15 135
e 15 136
e 15 137
e 15 141
e 15 143
e 15 149
e 15 150
e 15 155
e 15 168
e 15 172
e 15 177
e 15 181
e 15 182
e 15 184
e 15 186
e 15 189
e 15 197
e 16 28
e 16 29
e 16 30
e 16 31
e 16 37
e 16 47
e 16 50
e 16 53
e 16 54
e 16 59
e 16 65
e 16 67
e 16 78
e 16 84
e 16 93
e 16 99
e 16 104
e 16 108
e 16 113
e 16 115
e 16 116
e 16 127
e 16 142
e 16 144
e 16 146
e 16 148
e 16 151
e 16 163
e 16 165
e 16 168
e 16 170
e 16 176
e 16 177
e 16 178
e 16 179
e 16 182
e 16 184
e 16 190
e 16 195
e 16 197
e 17 20
e 17 23
e 17 32
e 17 33
e 17 34
e 17 37
e 17 44
e 17 50
e 17 69
e 17 74
e 17 90
e 17 115
e 17 116
e 17 119
e 17 123
e 17 126
e 17 128
e 17 132
e 17 145
e 17 152
e 17 155
e 17 156
e 17 157
e 17 160
e 17 167
e 17 168
e 17 172
e 17 174
e 17 178
e 17 183
e 17 197
e 18 32
e 18 33
e 18 40
e 18 43
e 18 45
e 18 46
e 18 49
e 18 50
e 18 55
e 18 56
e 18 60
e 18 65
e 18 75
e 18 76
e 18 78
e 18 80
e 18 87
e 18 91
e 18 92
e 18 96
e 18 98
e 18 104
e 18 137
e 18 141
e 18 155
e 18 156
e 18 157
e 18 159
e 18 164
e 18 166
e 18 168
e 18 171
e 18 179
e 18 189
e 18 191
e 18 197
e 18 198
e 19 26
e 19 33
e 19 39
e 19 41
e 19 54
e 19 59
e 19 69
e 19 88
e 19 90
e 19 94
e 19 97
e 19 101
e 19 104
e 19 112
e 19 117
e 19 124
e 19 125
e 19 129
e 19 137
e 19 139
e 19 145
e 19 150
e 19 153
e 19 155
e 19 162
e 19 172
e 19 173
e 19 188
e 19 192
e 19 193
e 19 195
e 19 196
e 19 199
e 20 31
e 20 32
e 20 43
e 20 54
e 20 55
e 20 60
e 20 61
e 20 68
e 20 77
e 20 80
e 20 86
e 20 89
e 20 95
e 20 109
e 20 131
e 20 132
e 20 134
e 20 139
e 20 149
e 20 153
e 20 158
e 20 164
e 20 165
e 20 168
e 20 171
e 20 172
e 20 182
e 20 190
e 20 199
e 21 37
e 21 38
e 21 46
e 21 55
e 21 56
e 21 62
e 21 65
e 21 68
e 21 70
e 21 74
e 21 75
e 21 76
e 21 78
e 21 94
e 21 95
e 21 99
e 21 101
e 21 119
e 21 129
e 21 139
e 21 149
e 21 153
e 21 172
e 21 180
e 21 183
e 21 185
e 21 198
e 21 200
e 22 24
e 22 27
e 22 47
e 22 48
e 22 49
e 22 50
e 22 56
e 22 58
e 22 61
e 22 74
e 22 75
e 22 86
e 22 99
e 22 104
e 22 114
e 22 115
e 22 118
e 22 121
e 22 125
e 22 126
e 22 140
e 22 143
e 22 147
e 22 150
e 22 151
e 22 155
e 22 156
e 22 158
e 22 162
e 22 167
e 22 174
e 22 186
e 22 188
e 22 194
e 22 198
e 23 24
e 23 26
e 23 34
e 23 42
e 23 43
e 23 47
e 23 50
e 23 58
e 23 60
e 23 63
e 23 66
e 23 68
e 23 70
e 23 79
e 23 80
e 23 82
e 23 93
e 23 99
e 23 100
e 23 102
e 23 104
e 23 105
e 23 108
e 23 111
e 23 124
e 23 125
e 23 143
e 23 147
e 23 154
e 23 165
e 23 167
e 23 174
e 23 177
e 23 178
e 23 183
e 23 190
e 23 191
e 23 196
e 24 25
e 24 26
e 24 41
e 24 42
e 24 43
e 24 47
e 24 64
e 24 69
e 24 72
e 24 73
e 24 86
e 24 87
e 24 92
e 24 97
e 24 101
e 24 102
e 24 108
e 24 114
e 24 118
e 24 119
e 24 123
e 24 133
e 24 134
e 24 152
e 24 156
e 24 159
e 24 162
e 24 165
e 24 184
e 24 191
e 25 30
e 25 35
e 25 42
e 25 53
e 25 59
e 25 60
e 25 61
e 25 63
e 25 67
e 25 74
e 25 76
e 25 78
e 25 79
e 25 88
e 25 94
e 25 98
e 25 102
e 25 104
e 25 106
e 25 109
e 25 111
e 25 124
e 25 132
e 25 136
e 25 142
e 25 145
e 25 146
e 25 147
e 25 149
e 25 151
e 25 154
e 25 156
e 25 158
e 25 159
e 25 161
e 25 162
e 25 165
e 25 174
e 25 179
e 25 197
e 26 27
e 26 56
e 26 67
e 26 72
e 26 81
e 26 86
e 26 91
e 26 94
e 26 99
e 26 101
e 26 113
e 26 116
e 26 119
e 26 127
e 26 134
e 26 135
e 26 136
e 26 143
e 26 146
e 26 155
e 26 167
e 26 168
e 26 169
e 26 174
e 26 179
e 26 182
e 26 187
e 26 188
e 26 192
e 26 193
e 26 194
e 27 36
e 27 37
e 27 46
e 27 50
e 27 53
e 27 54
e 27 57
e 27 64
e 27 71
e 27 73
e 27 75
e 27 77
e 27 98
e 27 105
e 27 109
e 27 119
e 27 126
e 27 144
e 27 145
e 27 147
e 27 155
e 27 169
e 27 176
e 27 189
e 27 192
e 27 198
e 28 32
e 28 43
e 28 45
e 28 49
e 28 50
e 28 57
e 28 65
e 28 67
e 28 69
e 28 74
e 28 79
e 28 83
e 28 91
e 28 98
e 28 101
e 28 108
e 28 111
e 28 116
e 28 118
e 28 120
e 28 121
e 28 133
e 28 135
e 28 140
e 28 148
e 28 150
e 28 153
e 28 156
e 28 159
e 28 168
e 28 174
e 28 189
e 29 31
e 29 37
e 29 47
e 29 60
e 29 65
e 29 70
e 29 72
e 29 81
e 29 83
e 29 93
e 29 94
e 29 97
e 29 101
e 29 107
e 29 111
e 29 114
e 29 115
e 29 118
e 29 129
e 29 145
e 29 159
e 29 160
e 29 161
e 29 168
e 29 169
e 29 171
e 29 175
e 29 189
e 29 198
e 29 199
e 30 31
e 30 37
e 30 38
e 30 39
e 30 43
e 30 54
e 30 56
e 30 59
e 30 66
e 30 70
e 30 71
e 30 84
e 30 85
e 30 89
e 30 98
e 30 110
e 30 113
e 30 129
e 30 132
e 30 135
e 30 137
e 30 140
e 30 142
e 30 144
e 30 146
e 30 151
e 30 156
e 30 158
e 30 183
e 30 191
e 30 196
e 30 199
e 31 35
e 31 37
e 31 38
e 31 40
e 31 51
e 31 56
e 31 66
e 31 70
e 31 77
e 31 82
e 31 84
e 31 85
e 31 86
e 31 88
e 31 90
e 31 93
e 31 104
e 31 106
e 31 110
e 31 122
e 31 134
e 31 137
e 31 138
e 31 139
e 31 146
e 31 151
e 31 161
e 31 166
e 31 167
e 31 169
e 31 185
e 31 192
e 31 193
e 32 33
e 32 44
e 32 45
e 32 56
e 32 71
e 32 77
e 32 83
e 32 86
e 32 87
e 32 90
e 32 95
e 32 96
e 32 97
e 32 107
e 32 111
e 32 116
e 32 124
e 32 126
e 32 133
e 32 138
e 32 144
e 32 145
e 32 146
e 32 149
e 32 165
e 32 174
e 32 179
e 32 183
e 32 184
e 32 185
e 32 188
e 32 199
e 33 38
e 33 40
e 33 44
e 33 45
e 33 53
e 33 58
e 33 59
e 33 61
e 33 65
e 33 68
e 33 71
e 33 72
e 33 73
e 33 79
e 33 81
e 33 90
e 33 96
e 33 100
e 33 102
e 33 105
e 33 106
e 33 115
e 33 139
e 33 142
e 33 153
e 33 172
e 33 174
e 33 180
e 33 190
e 33 196
e 33 198
e 33 199
e 34 41
e 34 44
e 34 49
e 34 56
e 34 63
e 34 68
e 34 71
e 34 72
e 34 79
e 34 84
e 34 95
e 34 101
e 34 102
e 34 103
e 34 107
e 34 119
e 34 131
e 34 135
e 34 140
e 34 145
e 34 146
e 34 148
e 34 153
e 34 156
e 34 172
e 34 175
e 34 178
e 34 192
e 34 198
e 35 36
e 35 37
e 35 38
e 35 41
e 35 52
e 35 53
e 35 57
e 35 59
e 35 64
e 35 75
e 35 77
e 35 80
e 35 82
e 35 86
e 35 88
e 35 96
e 35 120
e 35 122
e 35 124
e 35 133
e 35 138
e 35 142
e 35 144
e 35 151
e 35 155
e 35 158
e 35 162
e 35 164
e 35 165
e 35 166
e 35 168
e 35 180
e 35 181
e 35 187
e 35 188
e 35 193
e 35 199
e 36 38
e 36 46
e 36 48
e 36 52
e 36 63
e 36 68
e 36 76
e 36 81
e 36 83
e 36 84
e 36 91
e 36 98
e 36 103
e 36 106
e 36 108
e 36 112
e 36 121
e 36 123
e 36 127
e 36 128
e 36 134
e 36 136
e 36 140
e 36 159
e 36 161
e 36 164
e 36 166
e 36 167
e 36 174
e 36 178
e 36 179
e 36 192
e 37 39
e 37 42
e 37 53
e 37 60
e 37 68
e 37 71
e 37 75
e 37 81
e 37 88
e 37 97
e 37 103
e 37 125
e 37 130
e 37 131
e 37 136
e 37 137
e 37 141
e 37 142
e 37 143
e 37 144
e 37 147
e 37 155
e 37 164
e 37 168
e 37 178
e 37 183
e 37 187
e 37 196
e 37 197
e 37 198
e 38 44
e 38 53
e 38 68
e 38 69
e 38 73
e 38 83
e 38 87
e 38 88
e 38 90
e 38 91
e 38 96
e 38 97
e 38 104
e 38 110
e 38 113
e 38 116
e 38 125
e 38 130
e 38 132
e 38 133
e 38 136
e 38 138
e 38 141
e 38 142
e 38 143
e 38 147
e 38 152
e 38 166
e 38 171
e 38 173
e 38 174
e 38 180
e 38 184
e 38 188
e 38 190
e 38 193
e 38 194
e 39 44
e 39 45
e 39 48
e 39 50
e 39 51
e 39 70
e 39 84
e 39 86
e 39 87
e 39 91
e 39 96
e 39 100
e 39 102
e 39 106
e 39 107
e 39 124
e 39 127
e 39 131
e 39 134
e 39 136
e 39 137
e 39 142
e 39 144
e 39 145
e 39 147
e 39 152
e 39 153
e 39 156
e 39 159
e 39 160
e 39 163
e 39 174
e 39 178
e 39 181
e 39 182
e 39 186
e 39 187
e 39 192
e 39 193
e 39 194
e 39 200
e 40 43
e 40 48
e 40 50
e 40 51
e 40 64
e 40 79
e 40 85
e 40 90
e 40 97
e 40 100
e 40 117
e 40 122
e 40 124
e 40 127
e 40 128
e 40 130
e 40 141
e 40 142
e 40 148
e 40 158
e 40 159
e 40 166
e 40 177
e 40 191
e 40 194
e 41 49
e 41 50
e 41 54
e 41 58
e 41 59
e 41 72
e 41 94
e 41 102
e 41 111
e 41 121
e 41 122
e 41 134
e 41 141
e 41 147
e 41 148
e 41 157
e 41 161
e 41 165
e 41 166
e 41 171
e 41 174
e 41 175
e 41 176
e 41 181
e 41 185
e 41 186
e 41 193
e 41 196
e 41 197
e 41 199
e 42 45
e 42 48
e 42 54
e 42 59
e 42 62
e 42 71
e 42 73
e 42 78
e 42 86
e 42 89
e 42 94
e 42 100
e 42 107
e 42 111
e 42 120
e 42 121
e 42 127
e 42 131
e 42 139
e 42 142
e 42 144
e 42 146
e 42 148
e 42 163
e 42 164
e 42 167
e 42 169
e 42 170
e 42 171
e 42 172
e 42 180
e 42 184
e 42 188
e 42 189
e 42 192
e 42 193
e 42 199
e 43 44
e 43 46
e 43 49
e 43 52
e 43 53
e 43 54
e 43 57
e 43 61
e 43 62
e 43 66
e 43 68
e 43 77
e 43 81
e 43 82
e 43 103
e 43 113
e 43 116
e 43 118
e 43 124
e 43 126
e 43 129
e 43 132
e 43 142
e 43 153
e 43 155
e 43 156
e 43 161
e 43 171
e 43 172
e 43 176
e 43 177
e 43 183
e 43 184
e 43 186
e 43 189
e 43 192
e 44 45
e 44 47
e 44 49
e 44 52
e 44 54
e 44 56
e 44 58
e 44 62
e 44 64
e 44 67
e 44 68
e 44 72
e 44 83
e 44 86
e 44 97
e 44 102
e 44 107
e 44 109
e 44 113
e 44 114
e 44 115
e 44 120
e 44 131
e 44 138
e 44 139
e 44 140
e 44 147
e 44 160
e 44 173
e 44 174
e 44 176
e 44 181
e 44 187
e 44 191
e 44 196
e 45 49
e 45 63
e 45 67
e 45 73
e 45 83
e 45 86
e 45 88
e 45 92
e 45 93
e 45 98
e 45 100
e 45 107
e 45 112
e 45 115
e 45 124
e 45 125
e 45 132
e 45 134
e 45 135
e 45 145
e 45 152
e 45 154
e 45 156
e 45 157
e 45 159
e 45 162
e 45 170
e 45 180
e 45 181
e 45 182
e 45 183
e 45 188
e 45 191
e 45 194
e 45 197
e 46 53
e 46 57
e 46 59
e 46 64
e 46 65
e 46 78
e 46 82
e 46 91
e 46 99
e 46 101
e 46 103
e 46 105
e 46 111
e 46 126
e 46 136
e 46 145
e 46 146
e 46 150
e 46 154
e 46 155
e 46 159
e 46 173
e 46 174
e 46 177
e 46 179
e 46 184
e 46 185
e 46 187
e 46 191
e 46 199
e 47 52
e 47 53
e 47 55
e 47 70
e 47 75
e 47 84
e 47 91
e 47 97
e 47 103
e 47 105
e 47 106
e 47 107
e 47 117
e 47 124
e 47 134
e 47 135
e 47 137
e 47 138
e 47 139
e 47 140
e 47 144
e 47 151
e 47 154
e 47 157
e 47 160
e 47 161
e 47 168
e 47 169
e 47 174
e 47 182
e 47 193
e 47 196
e 48 50
e 48 52
e 48 65
e 48 73
e 48 74
e 48 76
e 48 82
e 48 99
e 48 101
e 48 102
e 48 103
e 48 126
e 48 128
e 48 129
e 48 130
e 48 134
e 48 136
e 48 137
e 48 138
e 48 150
e 48 151
e 48 152
e 48 154
e 48 158
e 48 159
e 48 162
e 48 173
e 48 174
e 48 176
e 48 183
e 48 184
e 48 185
e 48 187
e 48 190
e 48 199
e 48 200
e 49 51
e 49 55
e 49 70
e 49 72
e 49 78
e 49 83
e 49 87
e 49 88
e 49 90
e 49 92
e 49 113
e 49 126
e 49 128
e 49 131
e 49 132
e 49 156
e 49 157
e 49 163
e 49 168
e 49 179
e 49 186
e 50 53
e 50 56
e 50 59
e 50 71
e 50 75
e 50 92
e 50 95
e 50 102
e 50 106
e 50 111
e 50 123
e 50 134
e 50 138
e 50 140
e 50 147
e 50 151
e 50 152
e 50 155
e 50 169
e 50 176
e 50 179
e 50 188
e 50 193
e 50 197
e 51 53
e 51 58
e 51 73
e 51 75
e 51 84
e 51 93
e 51 98
e 51 100
e 51 104
e 51 106
e 51 107
e 51 116
e 51 124
e 51 129
e 51 138
e 51 143
e 51 144
e 51 148
e 51 149
e 51 159
e 51 166
e 51 168
e 51 178
e 51 189
e 51 191
e 51 197
e 51 199
e 52 54
e 52 66
e 52 67
e 52 74
e 52 81
e 52 83
e 52 88
e 52 91
e 52 93
e 52 98
e 52 99
e 52 100
e 52 104
e 52 106
e 52 115
e 52 117
e 52 118
e 52 124
e 52 127
e 52 138
e 52 144
e 52 149
e 52 153
e 52 155
e 52 156
e 52 163
e 52 164
e 52 166
e 52 167
e 52 173
e 52 176
e 52 183
e 52 191
e 53 62
e 53 65
e 53 68
e 53 72
e 53 74
e 53 75
e 53 79
e 53 88
e 53 90
e 53 91
e 53 98
e 53 99
e 53 112
e 53 119
e 53 125
e 53 133
e 53 143
e 53 144
e 53 152
e 53 157
e 53 158
e 53 159
e 53 163
e 53 175
e 53 176
e 53 181
e 53 186
e 53 193
e 54 55
e 54 75
e 54 79
e 54 80
e 54 83
e 54 84
e 54 96
e 54 105
e 54 108
e 54 110
e 54 114
e 54 117
e 54 119
e 54 126
e 54 129
e 54 130
e 54 133
e 54 134
e 54 136
e 54 141
e 54 143
e 54 149
e 54 150
e 54 157
e 54 160
e 54 170
e 54 186
e 54 190
e 54 192
e 54 194
e 54 195
e 54 196
e 55 56
e 55 57
e 55 58
e 55 67
e 55 68
e 55 72
e 55 73
e 55 81
e 55 90
e 55 94
e 55 101
e 55 111
e 55 114
e 55 123
e 55 130
e 55 146
e 55 148
e 55 152
e 55 167
e 55 170
e 55 176
e 55 177
e 55 183
e 55 184
e 55 186
e 55 189
e 55 190
e 55 196
e 55 198
e 56 61
e 56 63
e 56 71
e 56 89
e 56 91
e 56 99
e 56 107
e 56 119
e 56 124
e 56 126
e 56 129
e 56 130
e 56 137
e 56 139
e 56 140
e 56 142
e 56 148
e 56 163
e 56 170
e 56 171
e 56 176
e 56 178
e 56 183
e 56 187
e 56 191
e 57 62
e 57 69
e 57 77
e 57 85
e 57 86
e 57 87
e 57 94
e 57 98
e 57 100
e 57 106
e 57 107
e 57 112
e 57 117
e 57 119
e 57 127
e 57 134
e 57 136
e 57 137
e 57 143
e 57 147
e 57 153
e 57 158
e 57 159
e 57 165
e 57 166
e 57 169
e 57 173
e 57 197
e 58 65
e 58 68
e 58 69
e 58 72
e 58 82
e 58 86
e 58 93
e 58 98
e 58 107
e 58 113
e 58 115
e 58 138
e 58 139
e 58 141
e 58 142
e 58 148
e 58 153
e 58 154
e 58 158
e 58 161
e 58 165
e 58 170
e 58 184
e 58 193
e 59 66
e 59 69
e 59 72
e 59 74
e 59 78
e 59 80
e 59 91
e 59 96
e 59 107
e 59 109
e 59 127
e 59 138
e 59 142
e 59 152
e 59 154
e 59 159
e 59 160
e 59 161
e 59 165
e 59 166
e 59 168
e 59 169
e 59 174
e 59 184
e 59 188
e 59 190
e 59 193
e 59 199
e 60 61
e 60 76
e 60 84
e 60 89
e 60 91
e 60 93
e 60 104
e 60 106
e 60 110
e 60 118
e 60 120
e 60 124
e 60 129
e 60 135
e 60 145
e 60 148
e 60 150
e 60 151
e 60 154
e 60 155
e 60 159
e 60 165
e 60 168
e 60 181
e 60 188
e 60 194
e 61 66
e 61 68
e 61 78
e 61 89
e 61 90
e 61 94
e 61 96
e 61 105
e 61 107
e 61 110
e 61 116
e 61 118
e 61 120
e 61 125
e 61 129
e 61 154
e 61 159
e 61 166
e 61 167
e 61 172
e 61 178
e 61 179
e 61 182
e 61 185
e 61 188
e 61 191
e 62 67
e 62 70
e 62 71
e 62 74
e 62 81
e 62 84
e 62 96
e 62 100
e 62 106
e 62 108
e 62 117
e 62 124
e 62 132
e 62 134
e 62 136
e 62 139
e 62 140
e 62 155
e 62 162
e 62 163
e 62 168
e 62 172
e 62 178
e 62 181
e 62 184
e 62 193
e 62 199
e 63 68
e 63 74
e 63 75
e 63 81
e 63 83
e 63 88
e 63 114
e 63 116
e 63 117
e 63 123
e 63 127
e 63 137
e 63 139
e 63 140
e 63 151
e 63 153
e 63 168
e 63 169
e 63 170
e 63 175
e 63 177
e 63 178
e 63 182
e 63 183
e 63 191
e 63 196
e 64 65
e 64 68
e 64 69
e 64 77
e 64 79
e 64 86
e 64 88
e 64 94
e 64 96
e 64 97
e 64 105
e 64 106
e 64 107
e 64 110
e 64 111
e 64 115
e 64 119
e 64 120
e 64 121
e 64 124
e 64 127
e 64 129
e 64 138
e 64 153
e 64 159
e 64 162
e 64 163
e 64 164
e 64 169
e 64 179
e 64 184
e 64 190
e 64 196
e 64 197
e 65 68
e 65 77
e 65 80
e 65 85
e 65 92
e 65 93
e 65 104
e 65 110
e 65 112
e 65 119
e 65 120
e 65 127
e 65 128
e 65 143
e 65 147
e 65 149
e 65 154
e 65 166
e 65 167
e 65 170
e 65 171
e 65 172
e 65 186
e 66 69
e 66 75
e 66 78
e 66 82
e 66 84
e 66 88
e 66 93
e 66 94
e 66 101
e 66 105
e 66 106
e 66 107
e 66 111
e 66 117
e 66 124
e 66 125
e 66 126
e 66 131
e 66 134
e 66 135
e 66 138
e 66 147
e 66 149
e 66 150
e 66 151
e 66 153
e 66 160
e 66 168
e 66 171
e 66 174
e 66 176
e 66 187
e 66 188
e 66 190
e 66 194
e 66 196
e 67 77
e 67 78
e 67 86
e 67 89
e 67 92
e 67 93
e 67 95
e 67 98
e 67 101
e 67 105
e 67 107
e 67 108
e 67 109
e 67 111
e 67 119
e 67 123
e 67 130
e 67 138
e 67 139
e 67 140
e 67 143
e 67 158
e 67 166
e 67 170
e 67 172
e 67 173
e 67 176
e 67 181
e 67 189
e 67 191
e 67 194
e 67 195
e 67 198
e 68 78
e 68 84
e 68 87
e 68 90
e 68 97
e 68 104
e 68 107
e 68 112
e 68 116
e 68 118
e 68 120
e 68 134
e 68 138
e 68 139
e 68 140
e 68 145
e 68 149
e 68 150
e 68 151
e 68 160
e 68 165
e 68 171
e 68 172
e 68 184
e 68 198
e 68 199
e 69 73
e 69 79
e 69 84
e 69 97
e 69 102
e 69 105
e 69 116
e 69 117
e 69 122
e 69 124
e 69 125
e 69 128
e 69 131
e 69 133
e 69 136
e 69 141
e 69 152
e 69 159
e 69 164
e 69 165
e 69 169
e 69 178
e 69 184
e 69 185
e 69 186
e 69 187
e 69 192
e 70 73
e 70 75
e 70 78
e 70 86
e 70 94
e 70 96
e 70 97
e 70 101
e 70 108
e 70 110
e 70 114
e 70 116
e 70 118
e 70 122
e 70 126
e 70 131
e 70 134
e 70 136
e 70 139
e 70 142
e 70 148
e 70 153
e 70 155
e 70 157
e 70 177
e 70 181
e 70 183
e 70 185
e 70 187
e 70 191
e 70 199
e 70 200
e 71 76
e 71 77
e 71 87
e 71 88
e 71 89
e 71 91
e 71 93
e 71 100
e 71 103
e 71 105
e 71 110
e 71 111
e 71 117
e 71 119
e 71 121
e 71 125
e 71 134
e 71 138
e 71 144
e 71 149
e 71 152
e 71 154
e 71 155
e 71 156
e 71 174
e 71 185
e 71 190
e 71 192
e 71 196
e 72 81
e 72 83
e 72 84
e 72 86
e 72 87
e 72 91
e 72 96
e 72 102
e 72 104
e 72 109
e 72 111
e 72 118
e 72 126
e 72 129
e 72 132
e 72 137
e 72 139
e 72 140
e 72 146
e 72 148
e 72 151
e 72 157
e 72 164
e 72 167
e 72 173
e 72 175
e 72 183
e 72 184
e 72 188
e 72 189
e 72 195
e 72 200
e 73 80
e 73 91
e 73 92
e 73 93
e 73 99
e 73 103
e 73 109
e 73 112
e 73 117
e 73 123
e 73 125
e 73 127
e 73 129
e 73 130
e 73 139
e 73 140
e 73 152
e 73 156
e 73 164
e 73 170
e 73 171
e 73 177
e 73 186
e 73 196
e 73 198
e 74 76
e 74 79
e 74 83
e 74 95
e 74 97
e 74 98
e 74 106
e 74 113
e 74 123
e 74 129
e 74 130
e 74 139
e 74 140
e 74 143
e 74 149
e 74 151
e 74 153
e 74 156
e 74 158
e 74 160
e 74 165
e 74 168
e 74 174
e 74 187
e 75 80
e 75 86
e 75 88
e 75 94
e 75 102
e 75 107
e 75 119
e 75 121
e 75 122
e 75 135
e 75 144
e 75 145
e 75 146
e 75 152
e 75 154
e 75 157
e 75 160
e 75 163
e 75 165
e 75 174
e 75 183
e 75 184
e 75 191
e 75 198
e 75 200
e 76 83
e 76 85
e 76 92
e 76 99
e 76 101
e 76 105
e 76 108
e 76 112
e 76 122
e 76 127
e 76 136
e 76 140
e 76 151
e 76 161
e 76 164
e 76 168
e 76 184
e 76 190
e 77 81
e 77 87
e 77 94
e 77 99
e 77 102
e 77 107
e 77 108
e 77 112
e 77 120
e 77 121
e 77 124
e 77 129
e 77 133
e 77 134
e 77 136
e 77 140
e 77 148
e 77 152
e 77 167
e 77 169
e 77 175
e 77 195
e 77 200
e 78 83
e 78 87
e 78 90
e 78 96
e 78 97
e 78 116
e 78 119
e 78 124
e 78 126
e 78 128
e 78 129
e 78 130
e 78 143
e 78 144
e 78 145
e 78 147
e 78 151
e 78 158
e 78 174
e 78 175
e 78 177
e 78 185
e 78 189
e 78 193
e 78 197
e 78 200
e 79 83
e 79 97
e 79 100
e 79 101
e 79 104
e 79 105
e 79 111
e 79 114
e 79 119
e 79 120
e 79 121
e 79 123
e 79 127
e 79 130
e 79 136
e 79 137
e 79 140
e 79 149
e 79 152
e 79 164
e 79 168
e 79 170
e 79 176
e 79 178
e 79 182
e 79 186
e 79 195
e 79 197
e 80 83
e 80 84
e 80 87
e 80 91
e 80 102
e 80 103
e 80 105
e 80 107
e 80 108
e 80 112
e 80 117
e 80 120
e 80 132
e 80 133
e 80 135
e 80 136
e 80 145
e 80 146
e 80 149
e 80 150
e 80 153
e 80 160
e 80 187
e 80 190
e 80 195
e 81 94
e 81 95
e 81 97
e 81 98
e 81 100
e 81 101
e 81 106
e 81 107
e 81 108
e 81 118
e 81 123
e 81 124
e 81 129
e 81 135
e 81 153
e 81 167
e 81 178
e 81 179
e 81 186
e 81 188
e 81 190
e 81 191
e 81 192
e 81 193
e 81 195
e 81 200
e 82 83
e 82 85
e 82 101
e 82 108
e 82 109
e 82 119
e 82 132
e 82 136
e 82 147
e 82 158
e 82 174
e 82 175
e 82 181
e 82 183
e 82 188
e 82 197
e 82 200
e 83 86
e 83 90
e 83 91
e 83 94
e 83 99
e 83 108
e 83 118
e 83 124
e 83 126
e 83 134
e 83 136
e 83 142
e 83 143
e 83 152
e 83 161
e 83 165
e 83 169
e 83 186
e 83 187
e 83 196
e 83 198
e 83 199
e 84 85
e 84 97
e 84 104
e 84 128
e 84 130
e 84 133
e 84 138
e 84 142
e 84 143
e 84 145
e 84 149
e 84 154
e 84 159
e 84 163
e 84 165
e 84 167
e 84 171
e 84 174
e 84 185
e 84 186
e 84 193
e 84 194
e 84 199
e 85 101
e 85 103
e 85 105
e 85 109
e 85 110
e 85 114
e 85 118
e 85 119
e 85 120
e 85 125
e 85 129
e 85 132
e 85 139
e 85 147
e 85 149
e 85 151
e 85 154
e 85 158
e 85 161
e 85 163
e 85 171
e 85 175
e 85 179
e 85 199
e 86 90
e 86 96
e 86 97
e 86 100
e 86 103
e 86 105
e 86 106
e 86 108
e 86 111
e 86 127
e 86 131
e 86 153
e 86 157
e 86 162
e 86 169
e 86 173
e 86 177
e 86 179
e 86 187
e 86 192
e 86 194
e 86 197
e 87 98
e 87 105
e 87 116
e 87 122
e 87 124
e 87 127
e 87 132
e 87 148
e 87 152
e 87 157
e 87 158
e 87 160
e 87 161
e 87 165
e 87 179
e 87 180
e 87 188
e 87 190
e 87 194
e 87 198
e 87 200
e 88 95
e 88 97
e 88 99
e 88 103
e 88 104
e 88 107
e 88 109
e 88 111
e 88 112
e 88 113
e 88 115
e 88 118
e 88 119
e 88 128
e 88 132
e 88 136
e 88 140
e 88 142
e 88 152
e 88 160
e 88 168
e 88 177
e 88 181
e 88 191
e 89 91
e 89 94
e 89 96
e 89 99
e 89 106
e 89 113
e 89 117
e 89 118
e 89 125
e 89 128
e 89 135
e 89 141
e 89 143
e 89 147
e 89 158
e 89 169
e 89 188
e 89 191
e 89 193
e 90 91
e 90 94
e 90 102
e 90 114
e 90 116
e 90 117
e 90 129
e 90 131
e 90 142
e 90 151
e 90 152
e 90 153
e 90 154
e 90 160
e 90 166
e 90 177
e 90 186
e 90 189
e 90 194
e 91 92
e 91 95
e 91 97
e 91 103
e 91 104
e 91 106
e 91 113
e 91 121
e 91 132
e 91 133
e 91 147
e 91 150
e 91 153
e 91 161
e 91 164
e 91 172
e 91 175
e 91 177
e 91 178
e 91 184
e 91 185
e 91 189
e 91 199
e 92 94
e 92 101
e 92 107
e 92 112
e 92 119
e 92 139
e 92 145
e 92 147
e 92 151
e 92 155
e 92 158
e 92 160
e 92 162
e 92 163
e 92 164
e 92 166
e 92 169
e 92 174
e 92 178
e 92 180
e 92 181
e 92 186
e 92 187
e 92 190
e 92 200
e 93 96
e 93 99
e 93 102
e 93 109
e 93 112
e 93 115
e 93 118
e 93 120
e 93 123
e 93 127
e 93 133
e 93 141
e 93 142
e 93 143
e 93 146
e 93 147
e 93 153
e 93 161
e 93 162
e 93 166
e 93 168
e 93 170
e 93 181
e 93 182
e 93 185
e 93 188
e 93 190
e 93 192
e 93 196
e 93 197
e 93 199
e 94 97
e 94 100
e 94 105
e 94 118
e 94 119
e 94 124
e 94 125
e 94 127
e 94 136
e 94 148
e 94 153
e 94 161
e 94 164
e 94 167
e 94 173
e 94 176
e 94 181
e 94 183
e 94 191
e 94 193
e 94 199
e 95 101
e 95 103
e 95 105
e 95 120
e 95 127
e 95 131
e 95 136
e 95 147
e 95 149
e 95 156
e 95 160
e 95 166
e 95 173
e 95 181
e 95 183
e 95 191
e 95 192
e 96 102
e 96 105
e 96 115
e 96 117
e 96 121
e 96 130
e 96 131
e 96 143
e 96 144
e 96 146
e 96 154
e 96 155
e 96 156
e 96 172
e 96 179
e 96 191
e 96 194
e 97 99
e 97 104
e 97 108
e 97 111
e 97 120
e 97 126
e 97 128
e 97 130
e 97 137
e 97 140
e 97 149
e 97 150
e 97 151
e 97 152
e 97 166
e 97 172
e 97 175
e 97 186
e 97 187
e 98 99
e 98 100
e 98 102
e 98 109
e 98 128
e 98 131
e 98 133
e 98 134
e 98 138
e 98 141
e 98 146
e 98 147
e 98 153
e 98 157
e 98 158
e 98 160
e 98 161
e 98 165
e 98 166
e 98 168
e 98 175
e 98 187
e 98 189
e 98 190
e 98 191
e 98 192
e 98 193
e 98 195
e 99 100
e 99 110
e 99 112
e 99 119
e 99 120
e 99 123
e 99 132
e 99 134
e 99 137
e 99 139
e 99 140
e 99 154
e 99 172
e 99 173
e 99 176
e 99 177
e 99 178
e 99 189
e 99 192
e 100 109
e 100 111
e 100 115
e 100 121
e 100 124
e 100 140
e 100 147
e 100 148
e 100 149
e 100 154
e 100 160
e 100 165
e 100 171
e 100 173
e 100 184
e 100 187
e 100 188
e 100 196
e 101 110
e 101 112
e 101 113
e 101 116
e 101 120
e 101 122
e 101 125
e 101 127
e 101 132
e 101 145
e 101 155
e 101 158
e 101 174
e 101 176
e 101 180
e 101 193
e 101 194
e 101 198
e 102 104
e 102 108
e 102 123
e 102 129
e 102 132
e 102 136
e 102 138
e 102 139
e 102 144
e 102 147
e 102 152
e 102 153
e 102 154
e 102 155
e 102 168
e 102 169
e 102 176
e 102 179
e 102 180
e 102 181
e 102 183
e 102 186
e 102 190
e 102 199
e 103 105
e 103 111
e 103 118
e 103 129
e 103 130
e 103 133
e 103 137
e 103 138
e 103 152
e 103 160
e 103 179
e 103 182
e 103 185
e 103 186
e 103 196
e 103 199
e 104 117
e 104 120
e 104 126
e 104 130
e 104 131
e 104 140
e 104 146
e 104 148
e 104 150
e 104 154
e 104 161
e 104 165
e 104 183
e 104 184
e 104 195
e 104 200
e 105 110
e 105 111
e 105 113
e 105 115
e 105 119
e 105 125
e 105 128
e 105 131
e 105 133
e 105 139
e 105 144
e 105 146
e 105 150
e 105 172
e 105 174
e 106 109
e 106 111
e 106 112
e 106 114
e 106 137
e 106 143
e 106 144
e 106 148
e 106 150
e 106 155
e 106 156
e 106 157
e 106 159
e 106 164
e 106 168
e 106 170
e 106 171
e 106 180
e 106 182
e 106 192
e 106 194
e 106 196
e 106 197
e 107 119
e 107 129
e 107 130
e 107 138
e 107 141
e 107 151
e 107 166
e 107 175
e 107 176
e 107 177
e 107 179
e 107 184
e 107 190
e 107 191
e 107 192
e 107 198
e 107 200
e 108 111
e 108 123
e 108 124
e 108 138
e 108 147
e 108 161
e 108 162
e 108 167
e 108 171
e 108 177
e 108 187
e 108 191
e 108 197
e 108 200
e 109 120
e 109 121
e 109 131
e 109 143
e 109 148
e 109 157
e 109 158
e 109 161
e 109 162
e 109 165
e 109 168
e 109 169
e 109 170
e 109 178
e 109 187
e 109 189
e 109 190
e 109 197
e 110 115
e 110 119
e 110 121
e 110 129
e 110 131
e 110 139
e 110 146
e 110 148
e 110 163
e 110 168
e 110 177
e 110 190
e 110 198
e 110 199
e 110 200
e 111 112
e 111 117
e 111 129
e 111 132
e 111 137
e 111 144
e 111 150
e 111 154
e 111 162
e 111 163
e 111 164
e 111 167
e 111 168
e 111 177
e 111 180
e 111 186
e 111 200
e 112 117
e 112 118
e 112 120
e 112 121
e 112 122
e 112 127
e 112 132
e 112 134
e 112 141
e 112 144
e 112 145
e 112 146
e 112 152
e 112 155
e 112 159
e 112 160
e 112 161
e 112 166
e 112 170
e 112 174
e 112 176
e 112 179
e 112 186
e 112 189
e 112 197
e 113 118
e 113 119
e 113 120
e 113 125
e 113 126
e 113 129
e 113 140
e 113 146
e 113 147
e 113 148
e 113 151
e 113 157
e 113 158
e 113 159
e 113 165
e 113 170
e 113 174
e 113 178
e 113 183
e 113 184
e 113 186
e 113 189
e 113 194
e 113 199
e 114 127
e 114 129
e 114 136
e 114 139
e 114 143
e 114 144
e 114 165
e 114 166
e 114 167
e 114 172
e 114 184
e 114 186
e 114 193
e 114 194
e 115 116
e 115 119
e 115 131
e 115 135
e 115 136
e 115 140
e 115 145
e 115 146
e 115 158
e 115 176
e 115 177
e 115 179
e 115 181
e 115 186
e 115 187
e 115 188
e 115 189
e 115 191
e 115 192
e 115 196
e 116 117
e 116 120
e 116 122
e 116 130
e 116 133
e 116 135
e 116 145
e 116 155
e 116 157
e 116 163
e 116 170
e 116 172
e 116 175
e 116 180
e 116 194
e 116 195
e 117 119
e 117 125
e 117 130
e 117 131
e 117 132
e 117 135
e 117 136
e 117 138
e 117 150
e 117 151
e 117 155
e 117 159
e 117 160
e 117 164
e 117 165
e 117 166
e 117 178
e 117 179
e 117 183
e 117 185
e 117 189
e 118 120
e 118 122
e 118 124
e 118 132
e 118 134
e 118 142
e 118 154
e 118 160
e 118 163
e 118 167
e 118 171
e 118 172
e 118 173
e 118 176
e 118 180
e 118 187
e 118 194
e 118 198
e 119 121
e 119 123
e 119 124
e 119 125
e 119 126
e 119 130
e 119 138
e 119 141
e 119 142
e 119 144
e 119 145
e 119 147
e 119 157
e 119 162
e 119 164
e 119 167
e 119 169
e 119 170
e 119 171
e 119 184
e 119 188
e 119 192
e 119 195
e 119 197
e 119 198
e 120 125
e 120 130
e 120 132
e 120 136
e 120 139
e 120 144
e 120 145
e 120 146
e 120 152
e 120 161
e 120 165
e 120 167
e 120 178
e 120 180
e 120 181
e 120 186
e 120 194
e 120 196
e 121 122
e 121 123
e 121 125
e 121 133
e 121 136
e 121 146
e 121 147
e 121 153
e 121 158
e 121 161
e 121 165
e 121 176
e 121 185
e 121 191
e 121 197
e 121 198
e 122 123
e 122 128
e 122 138
e 122 143
e 122 145
e 122 154
e 122 162
e 122 165
e 122 166
e 122 172
e 122 179
e 122 184
e 122 188
e 122 189
e 122 192
e 122 196
e 122 197
e 123 125
e 123 127
e 123 132
e 123 136
e 123 140
e 123 149
e 123 162
e 123 166
e 123 169
e 123 170
e 123 175
e 123 176
e 123 178
e 123 180
e 123 182
e 123 195
e 123 199
e 124 125
e 124 128
e 124 130
e 124 142
e 124 151
e 124 160
e 124 162
e 124 174
e 124 181
e 124 185
e 124 187
e 125 135
e 125 136
e 125 144
e 125 146
e 125 147
e 125 156
e 125 165
e 125 170
e 125 176
e 125 187
e 125 192
e 125 195
e 125 198
e 125 200
e 126 127
e 126 135
e 126 141
e 126 143
e 126 147
e 126 150
e 126 156
e 126 160
e 126 163
e 126 168
e 126 169
e 126 173
e 126 177
e 126 181
e 126 182
e 126 193
e 126 198
e 127 133
e 127 139
e 127 150
e 127 155
e 127 165
e 127 168
e 127 170
e 127 176
e 127 179
e 127 193
e 128 131
e 128 134
e 128 135
e 128 152
e 128 153
e 128 157
e 128 161
e 128 177
e 128 188
e 128 189
e 128 190
e 128 193
e 129 138
e 129 139
e 129 143
e 129 146
e 129 147
e 129 149
e 129 160
e 129 161
e 129 165
e 129 175
e 129 183
e 129 184
e 129 196
e 129 197
e 129 198
e 129 200
e 130 141
e 130 151
e 130 160
e 130 161
e 130 166
e 130 169
e 130 171
e 130 174
e 130 182
e 130 183
e 130 184
e 130 189
e 130 192
e 130 194
e 131 133
e 131 135
e 131 145
e 131 159
e 131 167
e 131 170
e 131 178
e 131 189
e 131 192
e 131 194
e 132 134
e 132 136
e 132 145
e 132 147
e 132 150
e 132 152
e 132 161
e 132 163
e 132 184
e 132 186
e 132 195
e 132 198
e 133 141
e 133 142
e 133 155
e 133 165
e 133 169
e 133 175
e 133 186
e 133 191
e 133 196
e 133 197
e 134 148
e 134 149
e 134 151
e 134 154
e 134 155
e 134 157
e 134 158
e 134 160
e 134 164
e 134 169
e 134 187
e 134 197
e 135 144
e 135 145
e 135 147
e 135 149
e 135 159
e 135 161
e 135 162
e 135 165
e 135 166
e 135 170
e 135 173
e 135 177
e 135 183
e 135 193
e 135 196
e 135 199
e 136 138
e 136 145
e 136 150
e 136 157
e 136 159
e 136 162
e 136 171
e 136 183
e 136 185
e 136 189
e 136 195
e 136 197
e 136 198
e 137 142
e 137 148
e 137 151
e 137 155
e 137 160
e 137 162
e 137 163
e 137 171
e 137 182
e 137 184
e 137 186
e 137 187
e 137 195
e 137 199
e 137 200
e 138 139
e 138 146
e 138 147
e 138 150
e 138 155
e 138 156
e 138 157
e 138 164
e 138 166
e 138 169
e 138 171
e 138 172
e 138 181
e 138 185
e 138 190
e 138 195
e 139 144
e 139 145
e 139 147
e 139 150
e 139 151
e 139 161
e 139 165
e 139 172
e 139 173
e 139 177
e 139 181
e 139 184
e 139 186
e 139 187
e 139 190
e 139 195
e 140 141
e 140 155
e 140 163
e 140 164
e 140 168
e 140 174
e 140 175
e 140 187
e 140 191
e 140 194
e 141 149
e 141 151
e 141 152
e 141 162
e 141 166
e 141 169
e 141 173
e 141 180
e 141 187
e 141 189
e 141 192
e 142 145
e 142 147
e 142 151
e 142 164
e 142 173
e 142 189
e 142 190
e 143 144
e 143 149
e 143 152
e 143 156
e 143 168
e 143 171
e 143 178
e 143 187
e 143 197
e 143 200
e 144 148
e 144 149
e 144 154
e 144 155
e 144 163
e 144 167
e 144 169
e 144 171
e 144 176
e 144 183
e 144 188
e 144 195
e 144 199
e 145 152
e 145 154
e 145 159
e 145 170
e 145 171
e 145 173
e 145 180
e 145 182
e 145 184
e 145 187
e 145 189
e 145 190
e 145 192
e 145 194
e 145 195
e 145 196
e 145 199
e 146 147
e 146 152
e 146 155
e 146 159
e 146 161
e 146 162
e 146 167
e 146 174
e 146 176
e 146 177
e 146 183
e 146 186
e 146 190
e 146 193
e 146 197
e 147 154
e 147 161
e 147 162
e 147 166
e 147 171
e 147 173
e 147 179
e 147 182
e 147 185
e 147 197
e 148 149
e 148 153
e 148 164
e 148 167
e 148 171
e 148 174
e 148 177
e 148 187
e 148 197
e 149 151
e 149 157
e 149 159
e 149 165
e 149 168
e 149 170
e 149 179
e 149 180
e 149 181
e 149 183
e 149 185
e 149 191
e 149 192
e 149 194
e 150 153
e 150 161
e 150 163
e 150 169
e 150 170
e 150 171
e 150 173
e 150 176
e 150 180
e 150 185
e 150 186
e 150 196
e 151 160
e 151 161
e 151 165
e 151 177
e 151 183
e 151 186
e 151 187
e 151 190
e 152 154
e 152 157
e 152 159
e 152 161
e 152 162
e 152 163
e 152 164
e 152 167
e 152 174
e 152 175
e 152 176
e 152 177
e 152 186
e 152 187
e 152 197
e 152 199
e 152 200
e 153 167
e 153 168
e 153 169
e 153 171
e 153 178
e 153 188
e 153 193
e 153 196
e 153 197
e 153 200
e 154 157
e 154 164
e 154 165
e 154 167
e 154 179
e 154 183
e 154 185
e 154 197
e 154 200
e 155 160
e 155 161
e 155 164
e 155 176
e 155 179
e 155 188
e 155 191
e 155 195
e 156 159
e 156 165
e 156 176
e 156 178
e 156 179
e 156 186
e 156 191
e 156 193
e 156 195
e 156 196
e 156 200
e 157 159
e 157 160
e 157 162
e 157 171
e 157 173
e 157 176
e 157 177
e 157 182
e 157 185
e 157 190
e 157 192
e 157 197
e 158 161
e 158 162
e 158 164
e 158 175
e 158 177
e 158 186
e 158 188
e 158 191
e 158 192
e 158 199
e 159 165
e 159 170
e 159 179
e 159 190
e 159 191
e 159 193
e 159 196
e 160 163
e 160 165
e 160 166
e 160 173
e 160 177
e 160 179
e 160 194
e 160 195
e 160 197
e 160 199
e 161 187
e 161 189
e 161 200
e 162 169
e 162 173
e 162 177
e 162 178
e 162 179
e 162 186
e 162 196
e 163 174
e 163 176
e 163 177
e 163 182
e 163 183
e 163 185
e 163 186
e 163 195
e 164 170
e 164 176
e 164 177
e 164 192
e 165 170
e 165 175
e 165 176
e 165 184
e 165 198
e 165 199
e 166 179
e 166 182
e 166 183
e 166 185
e 166 187
e 166 192
e 166 197
e 167 175
e 167 178
e 167 179
e 167 180
e 167 189
e 167 191
e 167 195
e 167 196
e 167 199
e 168 171
e 168 176
e 168 178
e 168 180
e 168 183
e 168 190
e 168 199
e 169 172
e 169 175
e 169 176
e 169 183
e 169 184
e 169 194
e 169 199
e 170 181
e 170 184
e 170 185
e 170 188
e 170 194
e 170 198
e 171 179
e 171 184
e 171 190
e 171 191
e 171 194
e 172 179
e 172 188
e 172 190
e 172 192
e 172 195
e 172 198
e 173 175
e 173 179
e 173 181
e 173 187
e 174 182
e 174 183
e 174 184
e 174 189
e 175 176
e 175 178
e 175 180
e 175 190
e 175 191
e 176 181
e 176 184
e 176 186
e 176 200
e 177 185
e 177 190
e 177 191
e 177 193
e 177 198
e 178 179
e 178 187
e 178 190
e 178 192
e 178 194
e 178 195
e 178 198
e 179 182
e 179 194
e 179 198
e 179 199
e 180 183
e 180 185
e 180 189
e 180 191
e 180 196
e 180 198
e 181 185
e 182 187
e 182 193
e 182 196
e 183 197
e 184 186
e 184 190
e 185 187
e 185 190
e 185 194
e 185 197
e 186 188
e 186 191
e 186 192
e 186 193
e 186 199
e 186 200
e 187 188
e 187 189
e 187 190
e 187 194
e 187 195
e 187 198
e 188 189
e 188 191
e 188 192
e 188 200
e 189 194
e 189 195
e 190 192
e 190 196
e 190 200
e 191 197
e 191 198
e 192 193
e 192 195
e 192 196
e 192 198
e 193 198
e 194 200
e 195 197
e 195 198
e 196 200
e 197 198